Results/Jack's archive/compas_trial3_enc.csv_2_FlowOCT_d_2_t_60_lambda_0.0_c_1_ft_None_fb_0.2.lp
\ Model FlowOCT
\ LP format - for model browsing. Use MPS format to capture full model detail.
Maximize
  zeta[7,1,0] + zeta[7,2,0] + zeta[7,3,0] + zeta[7,4,0] + zeta[7,5,0]
   + zeta[7,6,0] + zeta[7,7,0] + zeta[4,1,1] + zeta[4,2,1] + zeta[4,3,1]
   + zeta[4,4,1] + zeta[4,5,1] + zeta[4,6,1] + zeta[4,7,1] + zeta[9,1,0]
   + zeta[9,2,0] + zeta[9,3,0] + zeta[9,4,0] + zeta[9,5,0] + zeta[9,6,0]
   + zeta[9,7,0] + zeta[1,1,0] + zeta[1,2,0] + zeta[1,3,0] + zeta[1,4,0]
   + zeta[1,5,0] + zeta[1,6,0] + zeta[1,7,0] - 28 Constant
Subject To
 R0: - zeta[7,1,0] - zeta[7,1,1] + z[7,1] - z[7,2] - z[7,3] = 0
 R1: - zeta[4,1,0] - zeta[4,1,1] + z[4,1] - z[4,2] - z[4,3] = 0
 R2: - zeta[9,1,0] - zeta[9,1,1] + z[9,1] - z[9,2] - z[9,3] = 0
 R3: - zeta[1,1,0] - zeta[1,1,1] + z[1,1] - z[1,2] - z[1,3] = 0
 R4: - zeta[7,2,0] - zeta[7,2,1] + z[7,2] - z[7,4] - z[7,5] = 0
 R5: - zeta[4,2,0] - zeta[4,2,1] + z[4,2] - z[4,4] - z[4,5] = 0
 R6: - zeta[9,2,0] - zeta[9,2,1] + z[9,2] - z[9,4] - z[9,5] = 0
 R7: - zeta[1,2,0] - zeta[1,2,1] + z[1,2] - z[1,4] - z[1,5] = 0
 R8: - zeta[7,3,0] - zeta[7,3,1] + z[7,3] - z[7,6] - z[7,7] = 0
 R9: - zeta[4,3,0] - zeta[4,3,1] + z[4,3] - z[4,6] - z[4,7] = 0
 R10: - zeta[9,3,0] - zeta[9,3,1] + z[9,3] - z[9,6] - z[9,7] = 0
 R11: - zeta[1,3,0] - zeta[1,3,1] + z[1,3] - z[1,6] - z[1,7] = 0
 R12: - b[1,age_factor.2] - b[1,age_factor.3] - b[1,race_factor.2]
   - b[1,race_factor.3] - b[1,race_factor.4] - b[1,race_factor.5]
   - b[1,race_factor.6] + z[7,2] <= 0
 R13: - b[2,age_factor.2] - b[2,age_factor.3] - b[2,race_factor.2]
   - b[2,race_factor.3] - b[2,race_factor.4] - b[2,race_factor.5]
   - b[2,race_factor.6] + z[7,4] <= 0
 R14: - b[3,age_factor.2] - b[3,age_factor.3] - b[3,race_factor.2]
   - b[3,race_factor.3] - b[3,race_factor.4] - b[3,race_factor.5]
   - b[3,race_factor.6] + z[7,6] <= 0
 R15: - b[1,priors_count.1] - b[1,priors_count.2] - b[1,two_year_recid.0]
   - b[1,age_factor.2] - b[1,age_factor.3] - b[1,race_factor.2]
   - b[1,race_factor.3] - b[1,race_factor.4] - b[1,race_factor.5]
   - b[1,race_factor.6] + z[4,2] <= 0
 R16: - b[2,priors_count.1] - b[2,priors_count.2] - b[2,two_year_recid.0]
   - b[2,age_factor.2] - b[2,age_factor.3] - b[2,race_factor.2]
   - b[2,race_factor.3] - b[2,race_factor.4] - b[2,race_factor.5]
   - b[2,race_factor.6] + z[4,4] <= 0
 R17: - b[3,priors_count.1] - b[3,priors_count.2] - b[3,two_year_recid.0]
   - b[3,age_factor.2] - b[3,age_factor.3] - b[3,race_factor.2]
   - b[3,race_factor.3] - b[3,race_factor.4] - b[3,race_factor.5]
   - b[3,race_factor.6] + z[4,6] <= 0
 R18: - b[1,gender_factor.1] - b[1,age_factor.2] - b[1,age_factor.3]
   - b[1,race_factor.2] - b[1,race_factor.3] - b[1,race_factor.4]
   - b[1,race_factor.5] - b[1,race_factor.6] - b[1,crime_factor.1] + z[9,2]
   <= 0
 R19: - b[2,gender_factor.1] - b[2,age_factor.2] - b[2,age_factor.3]
   - b[2,race_factor.2] - b[2,race_factor.3] - b[2,race_factor.4]
   - b[2,race_factor.5] - b[2,race_factor.6] - b[2,crime_factor.1] + z[9,4]
   <= 0
 R20: - b[3,gender_factor.1] - b[3,age_factor.2] - b[3,age_factor.3]
   - b[3,race_factor.2] - b[3,race_factor.3] - b[3,race_factor.4]
   - b[3,race_factor.5] - b[3,race_factor.6] - b[3,crime_factor.1] + z[9,6]
   <= 0
 R21: - b[1,two_year_recid.0] - b[1,age_factor.2] - b[1,age_factor.3]
   - b[1,race_factor.1] - b[1,race_factor.3] - b[1,race_factor.4]
   - b[1,race_factor.5] - b[1,race_factor.6] + z[1,2] <= 0
 R22: - b[2,two_year_recid.0] - b[2,age_factor.2] - b[2,age_factor.3]
   - b[2,race_factor.1] - b[2,race_factor.3] - b[2,race_factor.4]
   - b[2,race_factor.5] - b[2,race_factor.6] + z[1,4] <= 0
 R23: - b[3,two_year_recid.0] - b[3,age_factor.2] - b[3,age_factor.3]
   - b[3,race_factor.1] - b[3,race_factor.3] - b[3,race_factor.4]
   - b[3,race_factor.5] - b[3,race_factor.6] + z[1,6] <= 0
 R24: - b[1,priors_count.1] - b[1,priors_count.2] - b[1,priors_count.3]
   - b[1,priors_count.4] - b[1,priors_count.5] - b[1,priors_count.6]
   - b[1,priors_count.7] - b[1,priors_count.8] - b[1,two_year_recid.0]
   - b[1,gender_factor.1] - b[1,age_factor.1] - b[1,race_factor.1]
   - b[1,crime_factor.1] + z[7,3] <= 0
 R25: - b[2,priors_count.1] - b[2,priors_count.2] - b[2,priors_count.3]
   - b[2,priors_count.4] - b[2,priors_count.5] - b[2,priors_count.6]
   - b[2,priors_count.7] - b[2,priors_count.8] - b[2,two_year_recid.0]
   - b[2,gender_factor.1] - b[2,age_factor.1] - b[2,race_factor.1]
   - b[2,crime_factor.1] + z[7,5] <= 0
 R26: - b[3,priors_count.1] - b[3,priors_count.2] - b[3,priors_count.3]
   - b[3,priors_count.4] - b[3,priors_count.5] - b[3,priors_count.6]
   - b[3,priors_count.7] - b[3,priors_count.8] - b[3,two_year_recid.0]
   - b[3,gender_factor.1] - b[3,age_factor.1] - b[3,race_factor.1]
   - b[3,crime_factor.1] + z[7,7] <= 0
 R27: - b[1,priors_count.3] - b[1,priors_count.4] - b[1,priors_count.5]
   - b[1,priors_count.6] - b[1,priors_count.7] - b[1,priors_count.8]
   - b[1,gender_factor.1] - b[1,age_factor.1] - b[1,race_factor.1]
   - b[1,crime_factor.1] + z[4,3] <= 0
 R28: - b[2,priors_count.3] - b[2,priors_count.4] - b[2,priors_count.5]
   - b[2,priors_count.6] - b[2,priors_count.7] - b[2,priors_count.8]
   - b[2,gender_factor.1] - b[2,age_factor.1] - b[2,race_factor.1]
   - b[2,crime_factor.1] + z[4,5] <= 0
 R29: - b[3,priors_count.3] - b[3,priors_count.4] - b[3,priors_count.5]
   - b[3,priors_count.6] - b[3,priors_count.7] - b[3,priors_count.8]
   - b[3,gender_factor.1] - b[3,age_factor.1] - b[3,race_factor.1]
   - b[3,crime_factor.1] + z[4,7] <= 0
 R30: - b[1,priors_count.1] - b[1,priors_count.2] - b[1,priors_count.3]
   - b[1,priors_count.4] - b[1,priors_count.5] - b[1,priors_count.6]
   - b[1,priors_count.7] - b[1,priors_count.8] - b[1,two_year_recid.0]
   - b[1,age_factor.1] - b[1,race_factor.1] + z[9,3] <= 0
 R31: - b[2,priors_count.1] - b[2,priors_count.2] - b[2,priors_count.3]
   - b[2,priors_count.4] - b[2,priors_count.5] - b[2,priors_count.6]
   - b[2,priors_count.7] - b[2,priors_count.8] - b[2,two_year_recid.0]
   - b[2,age_factor.1] - b[2,race_factor.1] + z[9,5] <= 0
 R32: - b[3,priors_count.1] - b[3,priors_count.2] - b[3,priors_count.3]
   - b[3,priors_count.4] - b[3,priors_count.5] - b[3,priors_count.6]
   - b[3,priors_count.7] - b[3,priors_count.8] - b[3,two_year_recid.0]
   - b[3,age_factor.1] - b[3,race_factor.1] + z[9,7] <= 0
 R33: - b[1,priors_count.1] - b[1,priors_count.2] - b[1,priors_count.3]
   - b[1,priors_count.4] - b[1,priors_count.5] - b[1,priors_count.6]
   - b[1,priors_count.7] - b[1,priors_count.8] - b[1,gender_factor.1]
   - b[1,age_factor.1] - b[1,race_factor.2] - b[1,crime_factor.1] + z[1,3]
   <= 0
 R34: - b[2,priors_count.1] - b[2,priors_count.2] - b[2,priors_count.3]
   - b[2,priors_count.4] - b[2,priors_count.5] - b[2,priors_count.6]
   - b[2,priors_count.7] - b[2,priors_count.8] - b[2,gender_factor.1]
   - b[2,age_factor.1] - b[2,race_factor.2] - b[2,crime_factor.1] + z[1,5]
   <= 0
 R35: - b[3,priors_count.1] - b[3,priors_count.2] - b[3,priors_count.3]
   - b[3,priors_count.4] - b[3,priors_count.5] - b[3,priors_count.6]
   - b[3,priors_count.7] - b[3,priors_count.8] - b[3,gender_factor.1]
   - b[3,age_factor.1] - b[3,race_factor.2] - b[3,crime_factor.1] + z[1,7]
   <= 0
 R36: b[1,priors_count.1] + b[1,priors_count.2] + b[1,priors_count.3]
   + b[1,priors_count.4] + b[1,priors_count.5] + b[1,priors_count.6]
   + b[1,priors_count.7] + b[1,priors_count.8] + b[1,two_year_recid.0]
   + b[1,gender_factor.1] + b[1,age_factor.1] + b[1,age_factor.2]
   + b[1,age_factor.3] + b[1,race_factor.1] + b[1,race_factor.2]
   + b[1,race_factor.3] + b[1,race_factor.4] + b[1,race_factor.5]
   + b[1,race_factor.6] + b[1,crime_factor.1] + p[1] = 1
 R37: b[2,priors_count.1] + b[2,priors_count.2] + b[2,priors_count.3]
   + b[2,priors_count.4] + b[2,priors_count.5] + b[2,priors_count.6]
   + b[2,priors_count.7] + b[2,priors_count.8] + b[2,two_year_recid.0]
   + b[2,gender_factor.1] + b[2,age_factor.1] + b[2,age_factor.2]
   + b[2,age_factor.3] + b[2,race_factor.1] + b[2,race_factor.2]
   + b[2,race_factor.3] + b[2,race_factor.4] + b[2,race_factor.5]
   + b[2,race_factor.6] + b[2,crime_factor.1] + p[1] + p[2] = 1
 R38: b[3,priors_count.1] + b[3,priors_count.2] + b[3,priors_count.3]
   + b[3,priors_count.4] + b[3,priors_count.5] + b[3,priors_count.6]
   + b[3,priors_count.7] + b[3,priors_count.8] + b[3,two_year_recid.0]
   + b[3,gender_factor.1] + b[3,age_factor.1] + b[3,age_factor.2]
   + b[3,age_factor.3] + b[3,race_factor.1] + b[3,race_factor.2]
   + b[3,race_factor.3] + b[3,race_factor.4] + b[3,race_factor.5]
   + b[3,race_factor.6] + b[3,crime_factor.1] + p[1] + p[3] = 1
 R39: p[1] + p[2] + p[4] = 1
 R40: p[1] + p[2] + p[5] = 1
 R41: p[1] + p[3] + p[6] = 1
 R42: p[1] + p[3] + p[7] = 1
 R43: - beta[1,0] + zeta[7,1,0] <= 0
 R44: - beta[1,1] + zeta[7,1,1] <= 0
 R45: - beta[1,0] + zeta[4,1,0] <= 0
 R46: - beta[1,1] + zeta[4,1,1] <= 0
 R47: - beta[1,0] + zeta[9,1,0] <= 0
 R48: - beta[1,1] + zeta[9,1,1] <= 0
 R49: - beta[1,0] + zeta[1,1,0] <= 0
 R50: - beta[1,1] + zeta[1,1,1] <= 0
 R51: - beta[2,0] + zeta[7,2,0] <= 0
 R52: - beta[2,1] + zeta[7,2,1] <= 0
 R53: - beta[2,0] + zeta[4,2,0] <= 0
 R54: - beta[2,1] + zeta[4,2,1] <= 0
 R55: - beta[2,0] + zeta[9,2,0] <= 0
 R56: - beta[2,1] + zeta[9,2,1] <= 0
 R57: - beta[2,0] + zeta[1,2,0] <= 0
 R58: - beta[2,1] + zeta[1,2,1] <= 0
 R59: - beta[3,0] + zeta[7,3,0] <= 0
 R60: - beta[3,1] + zeta[7,3,1] <= 0
 R61: - beta[3,0] + zeta[4,3,0] <= 0
 R62: - beta[3,1] + zeta[4,3,1] <= 0
 R63: - beta[3,0] + zeta[9,3,0] <= 0
 R64: - beta[3,1] + zeta[9,3,1] <= 0
 R65: - beta[3,0] + zeta[1,3,0] <= 0
 R66: - beta[3,1] + zeta[1,3,1] <= 0
 R67: - beta[4,0] + zeta[7,4,0] <= 0
 R68: - beta[4,1] + zeta[7,4,1] <= 0
 R69: - beta[4,0] + zeta[4,4,0] <= 0
 R70: - beta[4,1] + zeta[4,4,1] <= 0
 R71: - beta[4,0] + zeta[9,4,0] <= 0
 R72: - beta[4,1] + zeta[9,4,1] <= 0
 R73: - beta[4,0] + zeta[1,4,0] <= 0
 R74: - beta[4,1] + zeta[1,4,1] <= 0
 R75: - beta[5,0] + zeta[7,5,0] <= 0
 R76: - beta[5,1] + zeta[7,5,1] <= 0
 R77: - beta[5,0] + zeta[4,5,0] <= 0
 R78: - beta[5,1] + zeta[4,5,1] <= 0
 R79: - beta[5,0] + zeta[9,5,0] <= 0
 R80: - beta[5,1] + zeta[9,5,1] <= 0
 R81: - beta[5,0] + zeta[1,5,0] <= 0
 R82: - beta[5,1] + zeta[1,5,1] <= 0
 R83: - beta[6,0] + zeta[7,6,0] <= 0
 R84: - beta[6,1] + zeta[7,6,1] <= 0
 R85: - beta[6,0] + zeta[4,6,0] <= 0
 R86: - beta[6,1] + zeta[4,6,1] <= 0
 R87: - beta[6,0] + zeta[9,6,0] <= 0
 R88: - beta[6,1] + zeta[9,6,1] <= 0
 R89: - beta[6,0] + zeta[1,6,0] <= 0
 R90: - beta[6,1] + zeta[1,6,1] <= 0
 R91: - beta[7,0] + zeta[7,7,0] <= 0
 R92: - beta[7,1] + zeta[7,7,1] <= 0
 R93: - beta[7,0] + zeta[4,7,0] <= 0
 R94: - beta[7,1] + zeta[4,7,1] <= 0
 R95: - beta[7,0] + zeta[9,7,0] <= 0
 R96: - beta[7,1] + zeta[9,7,1] <= 0
 R97: - beta[7,0] + zeta[1,7,0] <= 0
 R98: - beta[7,1] + zeta[1,7,1] <= 0
 R99: - p[1] + beta[1,0] + beta[1,1] = 0
 R100: - p[2] + beta[2,0] + beta[2,1] = 0
 R101: - p[3] + beta[3,0] + beta[3,1] = 0
 R102: - p[4] + beta[4,0] + beta[4,1] = 0
 R103: - p[5] + beta[5,0] + beta[5,1] = 0
 R104: - p[6] + beta[6,0] + beta[6,1] = 0
 R105: - p[7] + beta[7,0] + beta[7,1] = 0
 R106: zeta[7,4,0] + zeta[7,4,1] - z[7,4] = 0
 R107: zeta[4,4,0] + zeta[4,4,1] - z[4,4] = 0
 R108: zeta[9,4,0] + zeta[9,4,1] - z[9,4] = 0
 R109: zeta[1,4,0] + zeta[1,4,1] - z[1,4] = 0
 R110: zeta[7,5,0] + zeta[7,5,1] - z[7,5] = 0
 R111: zeta[4,5,0] + zeta[4,5,1] - z[4,5] = 0
 R112: zeta[9,5,0] + zeta[9,5,1] - z[9,5] = 0
 R113: zeta[1,5,0] + zeta[1,5,1] - z[1,5] = 0
 R114: zeta[7,6,0] + zeta[7,6,1] - z[7,6] = 0
 R115: zeta[4,6,0] + zeta[4,6,1] - z[4,6] = 0
 R116: zeta[9,6,0] + zeta[9,6,1] - z[9,6] = 0
 R117: zeta[1,6,0] + zeta[1,6,1] - z[1,6] = 0
 R118: zeta[7,7,0] + zeta[7,7,1] - z[7,7] = 0
 R119: zeta[4,7,0] + zeta[4,7,1] - z[4,7] = 0
 R120: zeta[9,7,0] + zeta[9,7,1] - z[9,7] = 0
 R121: zeta[1,7,0] + zeta[1,7,1] - z[1,7] = 0
 R122: z[7,1] = 1
 R123: z[4,1] = 1
 R124: z[9,1] = 1
 R125: z[1,1] = 1
Bounds
 Constant = 1
Binaries
 b[1,priors_count.1] b[1,priors_count.2] b[1,priors_count.3]
 b[1,priors_count.4] b[1,priors_count.5] b[1,priors_count.6]
 b[1,priors_count.7] b[1,priors_count.8] b[1,two_year_recid.0]
 b[1,gender_factor.1] b[1,age_factor.1] b[1,age_factor.2] b[1,age_factor.3]
 b[1,race_factor.1] b[1,race_factor.2] b[1,race_factor.3]
 b[1,race_factor.4] b[1,race_factor.5] b[1,race_factor.6]
 b[1,crime_factor.1] b[2,priors_count.1] b[2,priors_count.2]
 b[2,priors_count.3] b[2,priors_count.4] b[2,priors_count.5]
 b[2,priors_count.6] b[2,priors_count.7] b[2,priors_count.8]
 b[2,two_year_recid.0] b[2,gender_factor.1] b[2,age_factor.1]
 b[2,age_factor.2] b[2,age_factor.3] b[2,race_factor.1] b[2,race_factor.2]
 b[2,race_factor.3] b[2,race_factor.4] b[2,race_factor.5]
 b[2,race_factor.6] b[2,crime_factor.1] b[3,priors_count.1]
 b[3,priors_count.2] b[3,priors_count.3] b[3,priors_count.4]
 b[3,priors_count.5] b[3,priors_count.6] b[3,priors_count.7]
 b[3,priors_count.8] b[3,two_year_recid.0] b[3,gender_factor.1]
 b[3,age_factor.1] b[3,age_factor.2] b[3,age_factor.3] b[3,race_factor.1]
 b[3,race_factor.2] b[3,race_factor.3] b[3,race_factor.4]
 b[3,race_factor.5] b[3,race_factor.6] b[3,crime_factor.1] p[1] p[2] p[3]
 p[4] p[5] p[6] p[7] zeta[7,1,0] zeta[7,1,1] zeta[7,2,0] zeta[7,2,1]
 zeta[7,3,0] zeta[7,3,1] zeta[7,4,0] zeta[7,4,1] zeta[7,5,0] zeta[7,5,1]
 zeta[7,6,0] zeta[7,6,1] zeta[7,7,0] zeta[7,7,1] zeta[4,1,0] zeta[4,1,1]
 zeta[4,2,0] zeta[4,2,1] zeta[4,3,0] zeta[4,3,1] zeta[4,4,0] zeta[4,4,1]
 zeta[4,5,0] zeta[4,5,1] zeta[4,6,0] zeta[4,6,1] zeta[4,7,0] zeta[4,7,1]
 zeta[9,1,0] zeta[9,1,1] zeta[9,2,0] zeta[9,2,1] zeta[9,3,0] zeta[9,3,1]
 zeta[9,4,0] zeta[9,4,1] zeta[9,5,0] zeta[9,5,1] zeta[9,6,0] zeta[9,6,1]
 zeta[9,7,0] zeta[9,7,1] zeta[1,1,0] zeta[1,1,1] zeta[1,2,0] zeta[1,2,1]
 zeta[1,3,0] zeta[1,3,1] zeta[1,4,0] zeta[1,4,1] zeta[1,5,0] zeta[1,5,1]
 zeta[1,6,0] zeta[1,6,1] zeta[1,7,0] zeta[1,7,1] z[7,1] z[7,2] z[7,3]
 z[7,4] z[7,5] z[7,6] z[7,7] z[4,1] z[4,2] z[4,3] z[4,4] z[4,5] z[4,6]
 z[4,7] z[9,1] z[9,2] z[9,3] z[9,4] z[9,5] z[9,6] z[9,7] z[1,1] z[1,2]
 z[1,3] z[1,4] z[1,5] z[1,6] z[1,7]
End
